NAME : R104.4169.tour
COMMENT : Cost = 0_4169
COMMENT : Found by LKH [Keld Helsgaun] Wed Sep 13 18:31:38 2017
TYPE : TOUR
DIMENSION : 29
TOUR_SECTION
1
2
11
21
10
4
25
13
28
3
16
15
17
18
6
29
22
23
24
5
26
27
8
20
12
9
19
7
14
-1
EOF
